N8                                      
    1.000000000000000     
     5.8550783513568483    0.0000000000000000   -0.0000000000000000
    -0.0000000000000000    5.8550783513568483    0.0000000000000000
     0.0000000000000000   -0.0000000000000000    5.8550783513568483
   N 
     8
Direct
  0.5548941185120682  0.4451058814879318  0.9451058814879318
  0.4451058814879318  0.5548941185120682  0.0548941185120682
  0.9451058814879318  0.5548941185120682  0.4451058814879318
  0.0548941185120682  0.4451058814879318  0.5548941185120682
  0.0548941185120682  0.0548941185120682  0.0548941185120682
  0.9451058814879318  0.9451058814879318  0.9451058814879318
  0.4451058814879318  0.9451058814879318  0.5548941185120682
  0.5548941185120682  0.0548941185120682  0.4451058814879318
 
  0.00000000E+00  0.00000000E+00  0.00000000E+00
  0.00000000E+00  0.00000000E+00  0.00000000E+00
  0.00000000E+00  0.00000000E+00  0.00000000E+00
  0.00000000E+00  0.00000000E+00  0.00000000E+00
  0.00000000E+00  0.00000000E+00  0.00000000E+00
  0.00000000E+00  0.00000000E+00  0.00000000E+00
  0.00000000E+00  0.00000000E+00  0.00000000E+00
  0.00000000E+00  0.00000000E+00  0.00000000E+00
