Si1 N5                                  
    1.000000000000000     
     3.7748068420174543    0.5111559731874490    0.5177607335546216
     1.8092883783154896    7.0589621248681480    0.5559582527449811
     2.5154978012280740    2.6451728339587013    6.0853161337539508
   Si   N 
     1     5
Direct
  0.7359902909590834  0.4321404113418804  0.1694580733830394
  0.2022857669952772  0.4416934197925912  0.3622585488689980
  0.8363603892202560  0.6777907774226940  0.9126626420862581
  0.8887296911028373  0.4417704680005630  0.3607856205273031
  0.8887332574470228  0.8145544620195863  0.5170547586897885
  0.8624796042755198  0.7410214614226864  0.7107363564446046
 
  0.00000000E+00  0.00000000E+00  0.00000000E+00
  0.00000000E+00  0.00000000E+00  0.00000000E+00
  0.00000000E+00  0.00000000E+00  0.00000000E+00
  0.00000000E+00  0.00000000E+00  0.00000000E+00
  0.00000000E+00  0.00000000E+00  0.00000000E+00
  0.00000000E+00  0.00000000E+00  0.00000000E+00
