Si1 N5
1.0
4.920211 -0.000000 0.000000
1.556442 6.381205 -0.000000
2.292152 2.049784 7.455838
Si N
1 5
direct
0.570792 0.470260 0.251169 Si
0.241025 0.494395 0.385791 N
0.721696 0.647620 0.029660 N
0.035466 0.514139 0.216599 N
0.803711 0.756414 0.432928 N
0.041889 0.666143 0.716809 N
