Si1 N5                                  
    1.000000000000000     
     3.8141597747082465    0.4597589901686560    0.5259696838082174
     1.7463588159837182    6.9832810344118394    0.5408053207571378
     2.5498116049724859    2.5846507512076120    5.9244557389311030
   Si   N 
     1     5
Direct
  0.7497158730597731  0.4173723742055004  0.1677135838291873
  0.2016510492749273  0.4568214205722025  0.3559136217389068
  0.8155036005487371  0.6777101140410703 -0.0760460506244963
 -0.1097947799562240  0.4599781116189732  0.3555474252100327
  0.8992728226329199  0.8021938088233119  0.5148255153463090
 -0.1417695655601371  0.7348951707389432  0.7150019045000517
 
  0.00000000E+00  0.00000000E+00  0.00000000E+00
  0.00000000E+00  0.00000000E+00  0.00000000E+00
  0.00000000E+00  0.00000000E+00  0.00000000E+00
  0.00000000E+00  0.00000000E+00  0.00000000E+00
  0.00000000E+00  0.00000000E+00  0.00000000E+00
  0.00000000E+00  0.00000000E+00  0.00000000E+00
