Si1 N5
1.0
3.844284 -0.000000 0.000000
0.202943 6.090679 -0.000000
1.054221 2.700363 6.191538
Si N
1 5
direct
0.662411 0.169458 0.432140 Si
0.779658 0.517055 0.814554 N
0.685763 0.710736 0.741021 N
0.573186 0.912663 0.677791 N
0.993762 0.362259 0.441693 N
0.308714 0.360786 0.441770 N
